outputs/case_452.model.txt
unable_to_fulfill_contract = False
supervisor_consent_other_major_financial_matters = False
capital_increase_or_improvement_completed = False
risk_to_insured_rights = False
supervisor_consent_payment_or_disposal = False
capital_adequacy_ratio = 40
days_after_deadline = 7
improvement_after_guidance = False
net_worth_ratio = 3/2
supervisor_consent_contract_or_commitment = False
accelerated_loss_and_net_worth_deterioration = False
financial_or_business_deteriorated = False
improvement_plan_approved = False
net_worth = -10
improvement_plan_submitted = False
under_supervisory_measures = False
unable_to_pay_debt = False
aml_internal_control_executed = True
aml_internal_control_established = True
severe_financial_condition_penalty = False
aml_penalty_condition = False
prohibited_actions_without_supervisor_consent = False
improvement_plan_submitted_and_approved = False
financial_deterioration = False
capital_level_4_noncompliance = True
penalty = False
aml_internal_control_compliance = True
supervisory_measures_authorized = False
capital_level = 4
accelerated_deterioration_and_no_improvement = False
aml_avoid_or_obstruct_inspection = False
capital_level_4_penalty_period = 0